1 1860 9
2 1557 9
3 1378 9
19 1298 9
101 1295 9
119 1288 9
469 1283 9
965 1273 9



1 1777 10
2 1460 9
3 1452 9
5 1416 9
6 1379 9
14 1350 9
28 1331 9
141 1275 9
381 1271 9
789 1270 9



1 1760 9
2 1539 10
3 1490 9
4 1424 9
10 1390 9
17 1375 9
19 1324 9
73 1292 9
290 1291 9
606 1282 9
907 1280 9



1 1769 9
2 1538 9
3 1442 9
8 1429 10
9 1418 9
12 1404 10
17 1384 9
27 1341 9
31 1318 9
191 1313 9
423 1303 9
481 1266 9



1 1871 10
2 1460 9
3 1407 9
8 1406 10
14 1365 9
31 1360 9
36 1336 9
83 1335 9
90 1332 9
138 1329 9
171 1313 9
410 1305 9
467 1304 9
675 1281 9



